p wcnf 9 31 135
135 1 4 0
135 1 5 0
135 1 6 0
135 1 9 0
135 2 6 0
135 2 7 0
135 2 9 0
135 3 4 0
135 3 5 0
135 3 6 0
135 3 7 0
135 3 8 0
135 3 9 0
135 4 5 0
135 5 6 0
135 5 7 0
135 6 7 0
135 6 8 0
135 6 9 0
135 7 8 0
135 7 9 0
135 8 9 0
6 -1 0
7 -2 0
4 -3 0
7 -4 0
5 -5 0
3 -6 0
4 -7 0
6 -8 0
4 -9 0
